25408,
24255,
23244,
21848,
21848,
21498,
20269,
19452,
19452,
18548,
18116,
18116,
18035,
17999,
17730,
17639,
17371,
17340,
17308,
16926,
16916,
16778,
16760,
16537,
16447,
16414,
16414,
16136,
16049,
15873,
15737,
15725,
15683,
15671,
15491,
15473,
15473,
14894,
14876,
14625,
14625,
14579,
14540,
14494,
14411,
14411,
14411,
14411,
14411,
14340,
14340,
14340,
14340,
14098,
14098,
14098,
14098,
14098,
14098,
14053,
14042,
14042,
14042,
14042,
14042,
14017,
13789,
13789,
13589,
13502,
13502,
12991,
12991,
12819,
12819,
12819,
12819,
12819,
12603,
12603,
12524,
12524,
12524,
12501,
12501,
12501,
12501,
12501,
12448,
12448,
12157,
12157,
12157,
12139,
12139,
12139,
12139,
12109,
12109,
12095,
12095,
12095,
12095,
12095,
12095,
12095,
11978,
11978,
11859,
11859,
11859,
11859,
11859,
11859,
11853,
11853,
11853,
11853,
11796,
11796,
11796,
11796,
11796,
11796,
11796,
11796,
11796,
11796,
11796,
11796,
11796,
11796,
11785,
11784,
11693,
11681,
11655,
11643,
11643,
11643,
11643,
11643,
11643,
11643,
11618,
11618,
11618,
11618,
11618,
11618,
11618,
11618,
11618,
11618,
11618,
11618,
11618,
11590,
11590,
11590,
11590,
11590,
11394,
11394,
11392,
11392,
11392,
11392,
11271,
11271,
11271,
11271,
11271,
11271,
11254,
11254,
11254,
11254,
11254,
11254,
11254,
11254,
11254,
11254,
11061,
11061,
11061,
11019,
11019,
11019,
11019,
11019,
11019,
11019,
10925,
10925,
10925,
10925,
10925,
10925,
10925,
10925,
10925,
10925,
10833,
10793,
10793,
10793,
10793,
10793,
10793,
10793,
10793,
10793,
10793,
10793,
10793,
10793,
10793,
10793,
10793,
10782,
10782,
10782,
10782,
10782,
10782,
10782,
10782,
10782,
10782,
10782,
10782,
10782,
10782,
10744,
10744,
10744,
10744,
10744,
10744,
10744,
10744,
10744,
10744,
10744,
10744,
10744,
10744,
10744,
10744,
10744,
10742,
10742,
10742,
10742,
10742,
10742,
10742,
10742,
10742,
10742,
10742,
10742,
10742,
10742,
10742,
10742,
10742,
10742,
10742,
10742,
10742,
10742,
10742,
10742,
10742,
10742,
10742,
10742,
10742,
10742,
10742,
10742,
10742,
10742,
10742,
10742,
10742,
10742,
10742,
10742,
10742,
10742,
10742,
10742,
10742,
10742,
10742,
10742,
10742,
10742,
10742,
10486,
10486,
10486,
10306,
10306,
10306,
10306,
10283,
10283,
10283,
10283,
10283,
10283,
10283,
10283,
10283,
10283,
10283,
10283,
10283,
10283,
10283,
10283,
10283,
10283,
10283,
10223,
10223,
10223,
10012,
10012,
10012,
10012,
10012,
10012,
10012,
10012,
10012,
10012,
9940,
9940,
9940,
9940,
9940,
9940,
9940,
9940,
9913,
9913,
9913,
9913,
9913,
9913,
9913,
9913,
9913,
9913,
9913,
9913,
9913,
9913,
9913,
9913,
9913,
9913,
9913,
9913,
9913,
9913,
9913,
9913,
9913,
9913,
9913,
9913,
9913,
9913,
9913,
9913,
9913,
9913,
9913,
9913,
9913,
9913,
9913,
9897,
9897,
9897,
9897,
9897,
9897,
9897,
9897,
9897,
9897,
9897,
9897,
9897,
9897,
9897,
9897,
9897,
9897,
9897,
9897,
9897,
9897,
9897,
9897,
9897,
9897,
9897,
9877,
9877,
9877,
9877,
9877,
9877,
9877,
9877,
9877,
9877,
9877,
9877,
9877,
9877,
9877,
9877,
9877,
9877,
9877,
9877,
9877,
9877,
9877,
9877,
9877,
9877,
9877,
9877,
9877,
9877,
9877,
9877,
9877,
9877,
9877,
9877,
9877,
9877,
9877,
9877,
9877,
9877,
9877,
9877,
9877,
9877,
9877,
9877,
9877,
9877,
9877,
9877,
9877,
9877,
9877,
9877,
9877,
9877,
9877,
9877,
9877,
9877,
9877,
9877,
9877,
9877,
9877,
9877,
9877,
9877,
9877,
9877,
9877,
9877,
9877,
9877,
9877,
9877,
9877,
9877,
9877,
9877,
9877,
9877,
9877,
9877,
9877,
9877,
9877,
9877,
9877,
9877,
9877,
9877,
9877,
9877,
9877,
9877,
9877,
9877,
9877,
9877,
9877,
9877,
9877,
9877,
9877,
9877,
9877,
9877,
9877,
9877,
9877,
9877,
9877,
9855,
9855,
9855,
9855,
9855,
9855,
9855,
9855,
9855,
9855,
9855,
9855,
9855,
9855,
9855,
9855,
9855,
9855,
9855,
9855,
9855,
9855,
9855,
9855,
9855,
9855,
9855,
9855,
9855,
9855,
9855,
9855,
9855,
9855,
9855,
9855,
9855,
9855,
9855,
9855,
9855,
9855,
9855,
9855,
9855,
9855,
9855,
9855,
9855,
9855,
9855,
9855,
9855,
9855,
9855,
9855,
9855,
9855,
9855,
9855,
9855,
9855,
9855,
9855,
9855,
9855,
9855,
9855,
9855,
9855,
9855,
9855,
9855,
9855,
9855,
9855,
9855,
9855,
9855,
9855,
9855,
9855,
9855,
9855,
9855,
9855,
9855,
9855,
9855,
9855,
9855,
9855,
9855,
9855,
9855,
9855,
9855,
9855,
9855,
9855,
9855,
9855,
9855,
9855,
9855,
9855,
9855,
9855,
9855,
9855,
9855,
9855,
9855,
9855,
9855,
9855,
9855,
9855,
9855,
9855,
9855,
9855,
9855,
9855,
9855,
9855,
9855,
9855,
9855,
9855,
9855,
9855,
9855,
9855,
9855,
9855,
9855,
9855,
9855,
9855,
9855,
9855,
9855,
9855,
9855,
9855,
9855,
9855,
9855,
9855,
9855,
9855,
9855,
9855,
9855,
9855,
9855,
9855,
9855,
9855,
9855,
9855,
9855,
9855,
9855,
9855,
9855,
9855,
9855,
9855,
9855,
9855,
9855,
9855,
9855,
9855,
9855,
9855,
9855,
9855,
9855,
9855,
9855,
9855,
9855,
9855,
9855,
9855,
9855,
9855,
9855,
9855,
9855,
9855,
9855,
9855,
9855,
9855,
9855,
9855,
9855,
9855,
9855,
9855,
9855,
9855,
9855,
9855,
9855,
9855,
9855,
9855,
9855,
9855,
9855,
9855,
9855,
9855,
9855,
9855,
9855,
9855,
9855,
9855,
9855,
9855,
9855,
9855,
9855,
9855,
9855,
9855,
9855,
9855,
9855,
9855,
9855,
9855,
9855,
9855,
9855,
9855,
9855,
9855,
9855,
9855,
9855,
9855,
9855,
9855,
9855,
9855,
9855,
9855,
9855,
9855,
9855,
9855,
9855,
9855,
9855,
9855,
9855,
9855,
9855,
9855,
9855,
9855,
9855,
9855,
9855,
9855,
9855,
9855,
9855,
9855,
9855,
9855,
9855,
9855,
9855,
9855,
9855,
9855,
9855,
9855,
9855,
9855,
9855,
9855,
9855,
9855,
9855,
9855,
9855,
9855,
9855,
9855,
9855,
9855,
9855,
9855,
9855,
9855,
9855,
9855,
9855,
9855,
9855,
9855,
9855,
9855,
9855,
9855,
9855,
9855,
9855,
9855,
9855,
9855,
9855,
9855,
9855,
9855,
9855,
9855,
9855,
9855,
9855,
9855,
9855,
9855,
9855,
9855,
9855,
9855,
9855,
9855,
9855,
9855,
9855,
9855,
9855,
9855,
9855,
9855,
9855,
9855,
9855,
9855,
9855,
9855,
9855,
9855,
9855,
9855,
9855,
9855,
9855,
9855,
9855,
9855,
9855,
9855,
9855,
9855,
9855,
9855,
9855,
9855,
9855,
9855,
9855,
9855,
9855,
9855,
9855,
9855,
9855,
9855,
9855,
9855,
9855,
9855,
9855,
9855,
9855,
9855,
9855,
9855,
9855,
9855,
9855,
9855,
9855,
9855,
9855,
9855,
9855,
9855,
9855,
9855,
9855,
9855,
9855,
9855,
9855,
9855,
9855,
9855,
9855,
9855,
9855,
9855,
9855,
9855,
9855,
9855,
9855,
9855,
9855,
9855,
9855,
9855,
9855,
9855,
9855,
9855,
9855,
9855,
9855,
9855,
9855,
9855,
9855,
9855,
9855,
9855,
9855,
9855,
9855,
9855,
9855,
9855,
9855,
9855,
9855,
9855,
9855,
9855,
9855,
9855,
9855,
9855,
9855,
9855,
9855,
9855,
9855,
9855,
9855,
9855,
9855,
9855,
9855,
9855,
9855,
9855,
9855,
9855,
1,
